CSHIFT = 0.1
EDIFF = 1e-05
ENCUT = 680.0
ICHARG = 0
ISMEAR = -5
ISTART = 1
KGAMMA = True
KSPACING = 0.12
LCHARG = False
LELF = False
LOPTICS = True
LORBIT = 10
LREAL = Auto
LWAVE = False
NBANDS = 84
NEDOS = 2001
NELM = 60
NELMDL = -5
NELMIN = 4
NPAR = 1
NSW = 0
PREC = Accurate
