Generated by pymatgen
1.0
   4.3780921432190123   -0.0000000000000000    0.0000000000000003
   0.0000000000000007    4.3780921432190123    0.0000000000000003
  -0.0000000000000000    0.0000000000000000    4.3780921432190123
Si C
4 4
direct
   0.0000000000000000    0.0000000000000000    0.0000000000000000 Si
   0.5000000000000000    0.5000000000000000    0.0000000000000000 Si
   0.5000000000000000    0.0000000000000000    0.5000000000000000 Si
   0.0000000000000000    0.5000000000000000    0.5000000000000000 Si
   0.2500000000000000    0.2500000000000000    0.7500000000000000 C
   0.2500000000000000    0.7500000000000000    0.2500000000000000 C
   0.7500000000000000    0.7500000000000000    0.7500000000000000 C
   0.7500000000000000    0.2500000000000000    0.2500000000000000 C
